;Testing: SMTCoq specified eqp1 as: (not (iff a b)) a (not b); can we use it modulo symmetry as (not (iff a b)) b (not a)
(set-logic UFLIA)
(declare-fun a () Bool)
(declare-fun b () Bool)
(assert (= a b))
(assert (not b))
(assert a)
(check-sat)
(exit)
;(step t4 (cl (not (= a b)) b (not a)) :rule equiv_pos1)